set EMPLOYEES := 1 2 3 4 5 6 7 8;
set SHIFTS := Morning Afternoon Night;
set DAYS := 1 2 3 4 5 6 7;


param preferences: 
Morning Afternoon Night :=
1 4 2 5
2 1 5 5
3 3 5 3
4 4 3 4
5 3 3 5
6 4 4 3
7 5 1 5
8 2 5 4;